WARNING: for repeatability, setting FPU to use double precision
============================[ Problem Statistics ]=============================
|                                                                             |
|  Number of variables:            50                                         |
|  Number of clauses:             218                                         |
|  Parse time:                   0.00 s                                       |
|                                                                             |
============================[ Search Statistics ]==============================
| Conflicts |          ORIGINAL         |          LEARNT          | Progress |
|           |    Vars  Clauses Literals |    Limit  Clauses Lit/Cl |          |
===============================================================================
===============================================================================
restarts              : 1
conflicts             : 60             (40761 /sec)
decisions             : 80             (0.00 % random) (54348 /sec)
propagations          : 902            (612772 /sec)
conflict literals     : 295            (10.33 % deleted)
Memory used           : 20.00 MB
CPU time              : 0.001472 s

SATISFIABLE
